/* Objective function */
max: +x1 +x2 +x3 +x4 +x5;

/* Constraints */
0 x1 <= 0;
0 x1 <= 0;
0 x1 <= 0;
0 x1 <= 0;
0 x1 <= 0;
+4 x1 +10 x2 +16 x3 +14 x4 +17 x5 <= 1;
+5 x1 +4 x2 +2 x3 +16 x4 +14 x5 <= 1;
+17 x1 +3 x2 +6 x3 +10 x4 +15 x5 <= 1;
+14 x1 +16 x2 +18 x3 +4 x4 +7 x5 <= 1;
+6 x1 +3 x2 +10 x3 +18 x4 +15 x5 <= 1;
